(set-info :source |
 Generated by Alive 0.1
 More info in N. P. Lopes, D. Menendez, S. Nagarakatte, J. Regehr.
 Provably Correct Peephole Optimizations with Alive. In PLDI'15.
|)

(set-info :status unknown)
(declare-fun C () (_ BitVec 11))
(declare-fun %x () (_ BitVec 2))
(declare-fun |ana_WillNotOverflowSignedAdd(%x, trunc(C))| () (_ BitVec 1))
(declare-fun u_%sx () (_ BitVec 8))
(assert
 (let (($x47296 (and (distinct (bvadd ((_ sign_extend 9) %x) C) ((_ sign_extend 9) (bvadd %x ((_ extract 1 0) C)))) true)))
 (let (($x46546 (= (bvand C (bvshl (_ bv2047 11) (bvsub (_ bv2 11) (_ bv1 11)))) (_ bv0 11))))
 (let (($x38496 (= |ana_WillNotOverflowSignedAdd(%x, trunc(C))| (_ bv1 1))))
 (let (($x41390 (= u_%sx (_ bv1 8))))
 (let (($x47228 (= (bvadd ((_ sign_extend 1) %x) ((_ sign_extend 1) ((_ extract 1 0) C))) ((_ sign_extend 1) (bvadd %x ((_ extract 1 0) C))))))
 (let (($x47304 (=> $x38496 $x47228)))
 (and $x47304 $x41390 $x38496 $x46546 $x47296))))))))
(check-sat)
